NAME Testprob
ROWS
 N  OBJ
 L  LIM1    
 G  LIM2    
 E  EQN     
COLUMNS
    X1        OBJ       1
    X1        LIM1      1
    X1        LIM2      1
    X2        OBJ       4
    X2        LIM1      1
    X2        EQN       -1
    X3        OBJ       9
    X3        LIM2      1
    X3        EQN       1
RHS
    RHS1      LIM1      5
    RHS1      LIM2      10
    RHS1      EQN       7
BOUNDS
 UP BND1      X1        4
 LO BND1      X2        -1
 UP BND1      X2        1
 FR BND1      X3      
ENDATA
